100 65332

 534 572
597 746
367 379
808 303
524 460
117 818
130 930
537 546
937 662
309 904
870 99
765 233
248 709
37 824
102 858
729 416
200 90
372 438
502 231
726 292
114 773
407 76
486 828
541 428
819 597
172 90
808 338
693 90
556 962
700 808
413 460
139 224
666 934
525 345
640 161
338 564
907 944
588 4
86 239
450 939
757 172
795 114
495 571
895 862
268 478
411 995
899 680
897 75
686 993
859 408
89 288
865 558
321 305
179 87
240 2
418 450
252 837
321 573
135 1000
297 287
573 281
442 160
347 165
747 286
894 793
757 906
333 976
745 233
152 882
131 329
346 113
808 871
247 637
64 165
132 430
859 288
634 737
254 454
556 990
528 55
656 356
234 482
865 504
310 316
695 730
17 875
373 939
352 806
544 851
73 551
791 826
218 304
678 399
804 317
562 468
741 286
662 962
356 313
809 99
295 527
